p cnf 32 260
c id 1 type at_least_one
1 2 3 4 5 6 7 8 0
c id 2 type at_most_one
-1 -2 0
c id 3 type at_most_one
-1 -3 0
c id 4 type at_most_one
-1 -4 0
c id 5 type at_most_one
-1 -5 0
c id 6 type at_most_one
-1 -6 0
c id 7 type at_most_one
-1 -7 0
c id 8 type at_most_one
-1 -8 0
c id 9 type at_most_one
-2 -3 0
c id 10 type at_most_one
-2 -4 0
c id 11 type at_most_one
-2 -5 0
c id 12 type at_most_one
-2 -6 0
c id 13 type at_most_one
-2 -7 0
c id 14 type at_most_one
-2 -8 0
c id 15 type at_most_one
-3 -4 0
c id 16 type at_most_one
-3 -5 0
c id 17 type at_most_one
-3 -6 0
c id 18 type at_most_one
-3 -7 0
c id 19 type at_most_one
-3 -8 0
c id 20 type at_most_one
-4 -5 0
c id 21 type at_most_one
-4 -6 0
c id 22 type at_most_one
-4 -7 0
c id 23 type at_most_one
-4 -8 0
c id 24 type at_most_one
-5 -6 0
c id 25 type at_most_one
-5 -7 0
c id 26 type at_most_one
-5 -8 0
c id 27 type at_most_one
-6 -7 0
c id 28 type at_most_one
-6 -8 0
c id 29 type at_most_one
-7 -8 0
c id 30 type at_least_one
9 10 11 12 13 14 15 16 0
c id 31 type at_most_one
-9 -10 0
c id 32 type at_most_one
-9 -11 0
c id 33 type at_most_one
-9 -12 0
c id 34 type at_most_one
-9 -13 0
c id 35 type at_most_one
-9 -14 0
c id 36 type at_most_one
-9 -15 0
c id 37 type at_most_one
-9 -16 0
c id 38 type at_most_one
-10 -11 0
c id 39 type at_most_one
-10 -12 0
c id 40 type at_most_one
-10 -13 0
c id 41 type at_most_one
-10 -14 0
c id 42 type at_most_one
-10 -15 0
c id 43 type at_most_one
-10 -16 0
c id 44 type at_most_one
-11 -12 0
c id 45 type at_most_one
-11 -13 0
c id 46 type at_most_one
-11 -14 0
c id 47 type at_most_one
-11 -15 0
c id 48 type at_most_one
-11 -16 0
c id 49 type at_most_one
-12 -13 0
c id 50 type at_most_one
-12 -14 0
c id 51 type at_most_one
-12 -15 0
c id 52 type at_most_one
-12 -16 0
c id 53 type at_most_one
-13 -14 0
c id 54 type at_most_one
-13 -15 0
c id 55 type at_most_one
-13 -16 0
c id 56 type at_most_one
-14 -15 0
c id 57 type at_most_one
-14 -16 0
c id 58 type at_most_one
-15 -16 0
c id 59 type at_least_one
17 18 19 20 21 22 23 24 0
c id 60 type at_most_one
-17 -18 0
c id 61 type at_most_one
-17 -19 0
c id 62 type at_most_one
-17 -20 0
c id 63 type at_most_one
-17 -21 0
c id 64 type at_most_one
-17 -22 0
c id 65 type at_most_one
-17 -23 0
c id 66 type at_most_one
-17 -24 0
c id 67 type at_most_one
-18 -19 0
c id 68 type at_most_one
-18 -20 0
c id 69 type at_most_one
-18 -21 0
c id 70 type at_most_one
-18 -22 0
c id 71 type at_most_one
-18 -23 0
c id 72 type at_most_one
-18 -24 0
c id 73 type at_most_one
-19 -20 0
c id 74 type at_most_one
-19 -21 0
c id 75 type at_most_one
-19 -22 0
c id 76 type at_most_one
-19 -23 0
c id 77 type at_most_one
-19 -24 0
c id 78 type at_most_one
-20 -21 0
c id 79 type at_most_one
-20 -22 0
c id 80 type at_most_one
-20 -23 0
c id 81 type at_most_one
-20 -24 0
c id 82 type at_most_one
-21 -22 0
c id 83 type at_most_one
-21 -23 0
c id 84 type at_most_one
-21 -24 0
c id 85 type at_most_one
-22 -23 0
c id 86 type at_most_one
-22 -24 0
c id 87 type at_most_one
-23 -24 0
c id 88 type at_least_one
25 26 27 28 29 30 31 32 0
c id 89 type at_most_one
-25 -26 0
c id 90 type at_most_one
-25 -27 0
c id 91 type at_most_one
-25 -28 0
c id 92 type at_most_one
-25 -29 0
c id 93 type at_most_one
-25 -30 0
c id 94 type at_most_one
-25 -31 0
c id 95 type at_most_one
-25 -32 0
c id 96 type at_most_one
-26 -27 0
c id 97 type at_most_one
-26 -28 0
c id 98 type at_most_one
-26 -29 0
c id 99 type at_most_one
-26 -30 0
c id 100 type at_most_one
-26 -31 0
c id 101 type at_most_one
-26 -32 0
c id 102 type at_most_one
-27 -28 0
c id 103 type at_most_one
-27 -29 0
c id 104 type at_most_one
-27 -30 0
c id 105 type at_most_one
-27 -31 0
c id 106 type at_most_one
-27 -32 0
c id 107 type at_most_one
-28 -29 0
c id 108 type at_most_one
-28 -30 0
c id 109 type at_most_one
-28 -31 0
c id 110 type at_most_one
-28 -32 0
c id 111 type at_most_one
-29 -30 0
c id 112 type at_most_one
-29 -31 0
c id 113 type at_most_one
-29 -32 0
c id 114 type at_most_one
-30 -31 0
c id 115 type at_most_one
-30 -32 0
c id 116 type at_most_one
-31 -32 0
c id 117 type mutual_exclusion
-1 -9 0
c id 118 type mutual_exclusion
-1 -17 0
c id 119 type mutual_exclusion
-1 -25 0
c id 120 type mutual_exclusion
-9 -17 0
c id 121 type mutual_exclusion
-9 -25 0
c id 122 type mutual_exclusion
-17 -25 0
c id 123 type mutual_exclusion
-2 -10 0
c id 124 type mutual_exclusion
-2 -18 0
c id 125 type mutual_exclusion
-2 -26 0
c id 126 type mutual_exclusion
-10 -18 0
c id 127 type mutual_exclusion
-10 -26 0
c id 128 type mutual_exclusion
-18 -26 0
c id 129 type mutual_exclusion
-3 -11 0
c id 130 type mutual_exclusion
-3 -19 0
c id 131 type mutual_exclusion
-3 -27 0
c id 132 type mutual_exclusion
-11 -19 0
c id 133 type mutual_exclusion
-11 -27 0
c id 134 type mutual_exclusion
-19 -27 0
c id 135 type mutual_exclusion
-4 -12 0
c id 136 type mutual_exclusion
-4 -20 0
c id 137 type mutual_exclusion
-4 -28 0
c id 138 type mutual_exclusion
-12 -20 0
c id 139 type mutual_exclusion
-12 -28 0
c id 140 type mutual_exclusion
-20 -28 0
c id 141 type mutual_exclusion
-5 -13 0
c id 142 type mutual_exclusion
-5 -21 0
c id 143 type mutual_exclusion
-5 -29 0
c id 144 type mutual_exclusion
-13 -21 0
c id 145 type mutual_exclusion
-13 -29 0
c id 146 type mutual_exclusion
-21 -29 0
c id 147 type mutual_exclusion
-6 -14 0
c id 148 type mutual_exclusion
-6 -22 0
c id 149 type mutual_exclusion
-6 -30 0
c id 150 type mutual_exclusion
-14 -22 0
c id 151 type mutual_exclusion
-14 -30 0
c id 152 type mutual_exclusion
-22 -30 0
c id 153 type mutual_exclusion
-7 -15 0
c id 154 type mutual_exclusion
-7 -23 0
c id 155 type mutual_exclusion
-7 -31 0
c id 156 type mutual_exclusion
-15 -23 0
c id 157 type mutual_exclusion
-15 -31 0
c id 158 type mutual_exclusion
-23 -31 0
c id 159 type mutual_exclusion
-8 -16 0
c id 160 type mutual_exclusion
-8 -24 0
c id 161 type mutual_exclusion
-8 -32 0
c id 162 type mutual_exclusion
-16 -24 0
c id 163 type mutual_exclusion
-16 -32 0
c id 164 type mutual_exclusion
-24 -32 0
c id 165 type edge_consistency
-1 -25 0
c id 166 type edge_consistency
-1 -26 0
c id 167 type edge_consistency
-1 -27 0
c id 168 type edge_consistency
-1 -28 0
c id 169 type edge_consistency
-2 -25 0
c id 170 type edge_consistency
-2 -26 0
c id 171 type edge_consistency
-2 -27 0
c id 172 type edge_consistency
-2 -28 0
c id 173 type edge_consistency
-3 -25 0
c id 174 type edge_consistency
-3 -26 0
c id 175 type edge_consistency
-3 -27 0
c id 176 type edge_consistency
-3 -28 0
c id 177 type edge_consistency
-4 -25 0
c id 178 type edge_consistency
-4 -26 0
c id 179 type edge_consistency
-4 -27 0
c id 180 type edge_consistency
-4 -28 0
c id 181 type edge_consistency
-5 -29 0
c id 182 type edge_consistency
-5 -30 0
c id 183 type edge_consistency
-5 -31 0
c id 184 type edge_consistency
-5 -32 0
c id 185 type edge_consistency
-6 -29 0
c id 186 type edge_consistency
-6 -30 0
c id 187 type edge_consistency
-6 -31 0
c id 188 type edge_consistency
-6 -32 0
c id 189 type edge_consistency
-7 -29 0
c id 190 type edge_consistency
-7 -30 0
c id 191 type edge_consistency
-7 -31 0
c id 192 type edge_consistency
-7 -32 0
c id 193 type edge_consistency
-8 -29 0
c id 194 type edge_consistency
-8 -30 0
c id 195 type edge_consistency
-8 -31 0
c id 196 type edge_consistency
-8 -32 0
c id 197 type edge_consistency
-25 -9 0
c id 198 type edge_consistency
-25 -10 0
c id 199 type edge_consistency
-25 -11 0
c id 200 type edge_consistency
-25 -12 0
c id 201 type edge_consistency
-26 -9 0
c id 202 type edge_consistency
-26 -10 0
c id 203 type edge_consistency
-26 -11 0
c id 204 type edge_consistency
-26 -12 0
c id 205 type edge_consistency
-27 -9 0
c id 206 type edge_consistency
-27 -10 0
c id 207 type edge_consistency
-27 -11 0
c id 208 type edge_consistency
-27 -12 0
c id 209 type edge_consistency
-28 -9 0
c id 210 type edge_consistency
-28 -10 0
c id 211 type edge_consistency
-28 -11 0
c id 212 type edge_consistency
-28 -12 0
c id 213 type edge_consistency
-29 -13 0
c id 214 type edge_consistency
-29 -14 0
c id 215 type edge_consistency
-29 -15 0
c id 216 type edge_consistency
-29 -16 0
c id 217 type edge_consistency
-30 -13 0
c id 218 type edge_consistency
-30 -14 0
c id 219 type edge_consistency
-30 -15 0
c id 220 type edge_consistency
-30 -16 0
c id 221 type edge_consistency
-31 -13 0
c id 222 type edge_consistency
-31 -14 0
c id 223 type edge_consistency
-31 -15 0
c id 224 type edge_consistency
-31 -16 0
c id 225 type edge_consistency
-32 -13 0
c id 226 type edge_consistency
-32 -14 0
c id 227 type edge_consistency
-32 -15 0
c id 228 type edge_consistency
-32 -16 0
c id 229 type edge_consistency
-25 -17 0
c id 230 type edge_consistency
-25 -18 0
c id 231 type edge_consistency
-25 -19 0
c id 232 type edge_consistency
-25 -20 0
c id 233 type edge_consistency
-26 -17 0
c id 234 type edge_consistency
-26 -18 0
c id 235 type edge_consistency
-26 -19 0
c id 236 type edge_consistency
-26 -20 0
c id 237 type edge_consistency
-27 -17 0
c id 238 type edge_consistency
-27 -18 0
c id 239 type edge_consistency
-27 -19 0
c id 240 type edge_consistency
-27 -20 0
c id 241 type edge_consistency
-28 -17 0
c id 242 type edge_consistency
-28 -18 0
c id 243 type edge_consistency
-28 -19 0
c id 244 type edge_consistency
-28 -20 0
c id 245 type edge_consistency
-29 -21 0
c id 246 type edge_consistency
-29 -22 0
c id 247 type edge_consistency
-29 -23 0
c id 248 type edge_consistency
-29 -24 0
c id 249 type edge_consistency
-30 -21 0
c id 250 type edge_consistency
-30 -22 0
c id 251 type edge_consistency
-30 -23 0
c id 252 type edge_consistency
-30 -24 0
c id 253 type edge_consistency
-31 -21 0
c id 254 type edge_consistency
-31 -22 0
c id 255 type edge_consistency
-31 -23 0
c id 256 type edge_consistency
-31 -24 0
c id 257 type edge_consistency
-32 -21 0
c id 258 type edge_consistency
-32 -22 0
c id 259 type edge_consistency
-32 -23 0
c id 260 type edge_consistency
-32 -24 0
